
Gurobi 6.5.2 (win64) logging started 07/23/16 02:31:27


Gurobi 6.5.2 (win64) logging started 07/23/16 02:31:27

Optimize a model with 7065 rows, 1083 columns and 16364 nonzeros
Coefficient statistics:
  Matrix range    [4e-06, 1e+03]
  Objective range [1e+00, 1e+00]
  Bounds range    [1e+00, 1e+00]
  RHS range       [1e+00, 1e+03]
Found heuristic solution: objective 554.596
Presolve removed 7038 rows and 1056 columns
Presolve time: 0.00s
Presolved: 27 rows, 27 columns, 81 nonzeros
Found heuristic solution: objective 404.2053531
Variable types: 27 continuous, 0 integer (0 binary)

Root relaxation: objective 1.718650e+02, 18 iterations, 0.00 seconds

    Nodes    |    Current Node    |     Objective Bounds      |     Work
 Expl Unexpl |  Obj  Depth IntInf | Incumbent    BestBd   Gap | It/Node Time

*    0     0               0     171.8650382  171.86504  0.00%     -    0s

Explored 0 nodes (18 simplex iterations) in 0.01 seconds
Thread count was 8 (of 8 available processors)

Optimal solution found (tolerance 1.00e-04)
Best objective 1.718650382310e+02, best bound 1.718650382310e+02, gap 0.0%

Wrote requested result file 'H2\instance2\\Results2EC_Sol5.lp'

